NAME: random_points
TYPE: TSP
DIMENSION: 13
EDGE_WEIGHT_TYPE: EUC_2D
NODE_COORD_SECTION
1 844 433
2 849 551
3 972 356
4 334 282
5 785 202
6 402 114
7 866 197
8 379 826
9 419 143
10 462 449
11 817 434
12 303 906
13 854 854
EOF
